# FitSNAP generated Hash: be97408b2c772d5f9cf07e10485b3d49
pair_style hybrid/overlay zbl 4.0 4.8 mliap model mliappy FitTorch_Pytorch.pt descriptor sna Ta_pot.mliap.descriptor
pair_coeff * * zbl 73 73
pair_coeff * * mliap Ta