units          metal
boundary       p p p
atom_style     atomic

read_data      TiAl_example_DATA

pair_style     hybrid/overlay pace table linear 5500
pair_coeff     * * pace TiAl_tutorial_pot.yace Ti Al 
pair_coeff     1 1 table TiAl_tutorial_pot_pairpot.table Ti_Ti
pair_coeff     2 1 table TiAl_tutorial_pot_pairpot.table Al_Ti
pair_coeff     2 2 table TiAl_tutorial_pot_pairpot.table Al_Al

dump           final_check all custom 1 dump_final_check.custom id type x y z fx fy fz
dump_modify    final_check sort id element Ti Al format line "%4d %1d %21.16f %21.16f %21.16f %21.16f %21.16f %21.16f"

run 0
